p wcnf 162 192 193 
1 21 5 0 
1 79 1 0 
1 -105 -66 0 
1 -14 136 0 
1 133 31 0 
1 -87 155 0 
1 67 -32 0 
1 -103 -53 0 
1 -115 40 0 
1 7 79 0 
1 -152 100 0 
1 110 87 0 
1 157 -158 0 
1 127 71 0 
1 -107 46 0 
1 -74 -5 0 
1 69 -60 0 
1 17 -118 0 
1 -87 126 0 
1 -63 -77 0 
1 55 -43 0 
1 -134 -129 0 
1 39 -137 0 
1 -36 63 0 
1 -120 -93 0 
1 59 146 0 
1 126 20 0 
1 -9 157 0 
1 -143 -90 0 
1 45 -27 0 
1 -8 -76 0 
1 47 -131 0 
1 -111 42 0 
1 60 23 0 
1 134 109 0 
1 136 -158 0 
1 -106 101 0 
1 -20 -97 0 
1 -54 -157 0 
1 137 -48 0 
1 -152 -61 0 
1 98 162 0 
1 88 -71 0 
1 -96 -85 0 
1 -40 -54 0 
1 -71 123 0 
1 -53 51 0 
1 -74 -50 0 
1 -63 147 0 
1 88 70 0 
1 133 -93 0 
1 2 -48 0 
1 127 1 0 
1 24 -139 0 
1 -75 -35 0 
1 153 135 0 
1 131 -79 0 
1 -36 -74 0 
1 -116 -112 0 
1 -28 -143 0 
1 87 -102 0 
1 -136 90 0 
1 -15 -142 0 
1 143 108 0 
1 69 22 0 
1 3 -126 0 
1 35 -117 0 
1 -64 -74 0 
1 72 27 0 
1 -162 124 0 
1 -139 156 0 
1 -25 26 0 
1 -156 127 0 
1 -119 99 0 
1 112 3 0 
1 73 -140 0 
1 -134 -96 0 
1 129 157 0 
1 131 142 0 
1 -68 -97 0 
1 159 -151 0 
1 -33 21 0 
1 -18 30 0 
1 60 10 0 
1 39 -43 0 
1 -109 142 0 
1 12 105 0 
1 22 -157 0 
1 158 77 0 
1 38 -159 0 
1 -71 97 0 
1 80 10 0 
1 -130 7 0 
1 -33 2 0 
1 -98 48 0 
1 44 -141 0 
1 -105 -40 0 
1 -149 31 0 
1 -46 -93 0 
1 -111 140 0 
1 27 -64 0 
1 128 115 0 
1 5 42 0 
1 22 4 0 
1 -82 -121 0 
1 -123 2 0 
1 130 -42 0 
1 -25 4 0 
1 -136 64 0 
1 -110 -94 0 
1 104 -111 0 
1 -42 -120 0 
1 2 -130 0 
1 48 157 0 
1 -85 -139 0 
1 -111 -42 0 
1 -15 134 0 
1 156 69 0 
1 59 97 0 
1 80 132 0 
1 -30 36 0 
1 159 -122 0 
1 116 152 0 
1 161 -104 0 
1 60 -6 0 
1 130 10 0 
1 -74 -103 0 
1 149 33 0 
1 153 39 0 
1 -142 -135 0 
1 30 43 0 
1 120 52 0 
1 71 30 0 
1 124 114 0 
1 16 -96 0 
1 81 -62 0 
1 -110 -117 0 
1 97 8 0 
1 -15 17 0 
1 -107 24 0 
1 -53 108 0 
1 124 -152 0 
1 121 -83 0 
1 -63 -29 0 
1 29 -45 0 
1 156 -72 0 
1 97 16 0 
1 82 110 0 
1 38 9 0 
1 25 -27 0 
1 4 -49 0 
1 -94 23 0 
1 -127 33 0 
1 14 156 0 
1 -49 -18 0 
1 -105 123 0 
1 -121 132 0 
1 -82 -69 0 
1 154 15 0 
1 87 -91 0 
1 65 -27 0 
1 6 127 0 
1 -143 -151 0 
1 -127 120 0 
1 160 -74 0 
1 -87 -45 0 
1 -162 -96 0 
1 11 -70 0 
1 -57 -79 0 
1 125 -161 0 
1 131 101 0 
1 1 -94 0 
1 -113 78 0 
1 -78 -66 0 
1 -30 -96 0 
1 63 148 0 
1 -86 -22 0 
1 10 -27 0 
1 -134 94 0 
1 -36 82 0 
1 35 49 0 
1 141 -142 0 
1 -2 -145 0 
1 -54 -132 0 
1 -156 134 0 
1 -23 -134 0 
1 117 -80 0 
1 -120 80 0 
1 93 83 0 
1 -144 -74 0 
1 -79 137 0 
1 -115 123 0 
